p tdp 20 78
1 2
1 5
1 6
1 9
1 10
1 12
1 13
1 14
1 16
1 17
1 19
2 5
2 7
2 9
2 11
2 13
2 14
2 20
3 4
3 12
3 14
3 17
3 18
3 19
4 6
4 7
4 10
4 11
4 14
4 17
4 18
5 8
5 13
5 17
6 8
6 9
6 13
6 16
6 17
6 20
7 12
7 14
7 15
7 16
7 18
7 19
7 20
8 11
8 14
8 15
8 16
9 10
9 11
9 12
9 19
9 20
10 12
10 13
10 14
10 16
10 17
10 18
10 19
11 15
11 16
11 19
11 20
12 16
12 17
12 18
12 20
13 14
13 19
14 17
14 18
17 18
18 19
19 20
